language Essence 1.3
letting nnodes be 90
letting nrings be 67
letting capacity be 50
letting demand be 
{{1, 4},
{1, 6},
{1, 9},
{1, 10},
{1, 13},
{1, 15},
{1, 23},
{1, 25},
{1, 28},
{1, 29},
{1, 30},
{1, 34},
{1, 36},
{1, 37},
{1, 38},
{1, 39},
{1, 44},
{1, 48},
{1, 50},
{1, 51},
{1, 53},
{1, 54},
{1, 55},
{1, 56},
{1, 64},
{1, 65},
{1, 68},
{1, 69},
{1, 70},
{1, 73},
{1, 76},
{1, 78},
{1, 79},
{1, 83},
{1, 84},
{1, 85},
{1, 88},
{1, 89},
{2, 3},
{2, 4},
{2, 6},
{2, 9},
{2, 11},
{2, 15},
{2, 16},
{2, 18},
{2, 22},
{2, 24},
{2, 27},
{2, 28},
{2, 30},
{2, 31},
{2, 32},
{2, 33},
{2, 34},
{2, 35},
{2, 37},
{2, 38},
{2, 41},
{2, 43},
{2, 44},
{2, 45},
{2, 46},
{2, 49},
{2, 51},
{2, 52},
{2, 56},
{2, 59},
{2, 61},
{2, 63},
{2, 71},
{2, 72},
{2, 75},
{2, 77},
{2, 78},
{2, 79},
{2, 81},
{2, 87},
{2, 89},
{3, 4},
{3, 5},
{3, 6},
{3, 13},
{3, 14},
{3, 20},
{3, 21},
{3, 22},
{3, 23},
{3, 24},
{3, 26},
{3, 27},
{3, 28},
{3, 29},
{3, 30},
{3, 31},
{3, 32},
{3, 33},
{3, 34},
{3, 35},
{3, 36},
{3, 43},
{3, 44},
{3, 48},
{3, 50},
{3, 52},
{3, 53},
{3, 57},
{3, 58},
{3, 59},
{3, 61},
{3, 62},
{3, 63},
{3, 66},
{3, 68},
{3, 71},
{3, 72},
{3, 73},
{3, 77},
{3, 80},
{3, 82},
{3, 85},
{3, 88},
{3, 89},
{3, 90},
{4, 7},
{4, 8},
{4, 10},
{4, 12},
{4, 13},
{4, 15},
{4, 16},
{4, 18},
{4, 19},
{4, 20},
{4, 21},
{4, 22},
{4, 23},
{4, 27},
{4, 28},
{4, 29},
{4, 30},
{4, 31},
{4, 33},
{4, 35},
{4, 37},
{4, 39},
{4, 41},
{4, 44},
{4, 45},
{4, 48},
{4, 49},
{4, 52},
{4, 54},
{4, 55},
{4, 56},
{4, 58},
{4, 60},
{4, 64},
{4, 67},
{4, 68},
{4, 70},
{4, 73},
{4, 74},
{4, 75},
{4, 76},
{4, 78},
{4, 79},
{4, 80},
{4, 81},
{4, 82},
{4, 83},
{4, 85},
{4, 87},
{4, 88},
{4, 89},
{4, 90},
{5, 9},
{5, 10},
{5, 11},
{5, 16},
{5, 17},
{5, 20},
{5, 23},
{5, 24},
{5, 25},
{5, 26},
{5, 29},
{5, 32},
{5, 34},
{5, 36},
{5, 39},
{5, 40},
{5, 42},
{5, 43},
{5, 45},
{5, 48},
{5, 49},
{5, 50},
{5, 54},
{5, 55},
{5, 59},
{5, 60},
{5, 62},
{5, 63},
{5, 64},
{5, 65},
{5, 68},
{5, 69},
{5, 73},
{5, 77},
{5, 79},
{5, 80},
{5, 81},
{5, 82},
{5, 85},
{5, 88},
{5, 89},
{5, 90},
{6, 9},
{6, 14},
{6, 15},
{6, 17},
{6, 21},
{6, 22},
{6, 24},
{6, 25},
{6, 26},
{6, 28},
{6, 29},
{6, 30},
{6, 31},
{6, 32},
{6, 34},
{6, 35},
{6, 39},
{6, 43},
{6, 46},
{6, 51},
{6, 53},
{6, 55},
{6, 57},
{6, 58},
{6, 60},
{6, 61},
{6, 64},
{6, 69},
{6, 72},
{6, 74},
{6, 75},
{6, 84},
{6, 86},
{6, 87},
{7, 8},
{7, 9},
{7, 11},
{7, 12},
{7, 13},
{7, 14},
{7, 16},
{7, 18},
{7, 20},
{7, 23},
{7, 27},
{7, 28},
{7, 32},
{7, 33},
{7, 37},
{7, 38},
{7, 39},
{7, 41},
{7, 42},
{7, 49},
{7, 50},
{7, 51},
{7, 55},
{7, 61},
{7, 63},
{7, 65},
{7, 69},
{7, 72},
{7, 73},
{7, 75},
{7, 76},
{7, 78},
{7, 79},
{7, 81},
{7, 88},
{7, 89},
{8, 10},
{8, 13},
{8, 15},
{8, 18},
{8, 20},
{8, 24},
{8, 25},
{8, 29},
{8, 31},
{8, 36},
{8, 39},
{8, 40},
{8, 43},
{8, 45},
{8, 46},
{8, 47},
{8, 48},
{8, 51},
{8, 54},
{8, 58},
{8, 61},
{8, 63},
{8, 64},
{8, 67},
{8, 69},
{8, 83},
{8, 84},
{8, 85},
{8, 86},
{8, 88},
{8, 89},
{9, 10},
{9, 11},
{9, 12},
{9, 13},
{9, 15},
{9, 18},
{9, 22},
{9, 23},
{9, 25},
{9, 27},
{9, 29},
{9, 31},
{9, 35},
{9, 37},
{9, 39},
{9, 40},
{9, 44},
{9, 46},
{9, 48},
{9, 49},
{9, 51},
{9, 52},
{9, 53},
{9, 54},
{9, 55},
{9, 56},
{9, 57},
{9, 59},
{9, 60},
{9, 61},
{9, 64},
{9, 65},
{9, 67},
{9, 68},
{9, 69},
{9, 70},
{9, 72},
{9, 73},
{9, 76},
{9, 77},
{9, 80},
{9, 82},
{9, 88},
{9, 89},
{9, 90},
{10, 11},
{10, 14},
{10, 15},
{10, 18},
{10, 19},
{10, 21},
{10, 22},
{10, 24},
{10, 25},
{10, 26},
{10, 28},
{10, 30},
{10, 32},
{10, 34},
{10, 36},
{10, 38},
{10, 40},
{10, 42},
{10, 43},
{10, 44},
{10, 45},
{10, 46},
{10, 48},
{10, 49},
{10, 50},
{10, 52},
{10, 53},
{10, 54},
{10, 55},
{10, 57},
{10, 60},
{10, 61},
{10, 63},
{10, 64},
{10, 65},
{10, 70},
{10, 72},
{10, 76},
{10, 78},
{10, 80},
{10, 81},
{10, 83},
{10, 86},
{10, 87},
{10, 90},
{11, 12},
{11, 14},
{11, 17},
{11, 19},
{11, 22},
{11, 23},
{11, 27},
{11, 30},
{11, 31},
{11, 32},
{11, 33},
{11, 37},
{11, 38},
{11, 40},
{11, 41},
{11, 42},
{11, 45},
{11, 48},
{11, 49},
{11, 51},
{11, 52},
{11, 53},
{11, 54},
{11, 57},
{11, 58},
{11, 66},
{11, 68},
{11, 69},
{11, 70},
{11, 71},
{11, 77},
{11, 78},
{11, 83},
{11, 85},
{11, 86},
{11, 87},
{11, 88},
{11, 89},
{12, 13},
{12, 14},
{12, 19},
{12, 20},
{12, 21},
{12, 22},
{12, 23},
{12, 26},
{12, 27},
{12, 29},
{12, 32},
{12, 34},
{12, 35},
{12, 40},
{12, 41},
{12, 43},
{12, 44},
{12, 45},
{12, 47},
{12, 48},
{12, 50},
{12, 52},
{12, 53},
{12, 55},
{12, 57},
{12, 60},
{12, 61},
{12, 63},
{12, 64},
{12, 65},
{12, 67},
{12, 69},
{12, 72},
{12, 76},
{12, 79},
{12, 80},
{12, 81},
{12, 83},
{12, 85},
{12, 86},
{12, 87},
{12, 90},
{13, 17},
{13, 18},
{13, 20},
{13, 21},
{13, 22},
{13, 23},
{13, 24},
{13, 26},
{13, 29},
{13, 30},
{13, 31},
{13, 32},
{13, 34},
{13, 37},
{13, 38},
{13, 42},
{13, 45},
{13, 49},
{13, 52},
{13, 53},
{13, 54},
{13, 55},
{13, 56},
{13, 57},
{13, 61},
{13, 63},
{13, 64},
{13, 65},
{13, 67},
{13, 68},
{13, 70},
{13, 72},
{13, 74},
{13, 76},
{13, 77},
{13, 79},
{13, 80},
{13, 83},
{13, 86},
{13, 87},
{13, 88},
{13, 89},
{14, 17},
{14, 18},
{14, 19},
{14, 20},
{14, 24},
{14, 25},
{14, 27},
{14, 28},
{14, 32},
{14, 34},
{14, 35},
{14, 37},
{14, 38},
{14, 40},
{14, 41},
{14, 44},
{14, 45},
{14, 46},
{14, 47},
{14, 49},
{14, 51},
{14, 52},
{14, 55},
{14, 56},
{14, 57},
{14, 58},
{14, 60},
{14, 61},
{14, 62},
{14, 65},
{14, 66},
{14, 67},
{14, 68},
{14, 69},
{14, 70},
{14, 72},
{14, 73},
{14, 76},
{14, 80},
{14, 82},
{14, 87},
{14, 88},
{14, 89},
{14, 90},
{15, 17},
{15, 21},
{15, 22},
{15, 23},
{15, 28},
{15, 31},
{15, 33},
{15, 41},
{15, 43},
{15, 44},
{15, 45},
{15, 49},
{15, 50},
{15, 51},
{15, 54},
{15, 55},
{15, 56},
{15, 57},
{15, 58},
{15, 59},
{15, 60},
{15, 64},
{15, 67},
{15, 70},
{15, 71},
{15, 78},
{15, 81},
{15, 83},
{15, 84},
{15, 85},
{15, 86},
{16, 18},
{16, 20},
{16, 21},
{16, 23},
{16, 25},
{16, 26},
{16, 27},
{16, 29},
{16, 31},
{16, 32},
{16, 34},
{16, 36},
{16, 37},
{16, 39},
{16, 41},
{16, 42},
{16, 43},
{16, 51},
{16, 53},
{16, 55},
{16, 56},
{16, 57},
{16, 61},
{16, 62},
{16, 64},
{16, 65},
{16, 66},
{16, 68},
{16, 70},
{16, 71},
{16, 73},
{16, 76},
{16, 77},
{16, 78},
{16, 79},
{16, 81},
{16, 86},
{16, 87},
{17, 20},
{17, 21},
{17, 22},
{17, 24},
{17, 26},
{17, 29},
{17, 31},
{17, 37},
{17, 39},
{17, 42},
{17, 43},
{17, 44},
{17, 45},
{17, 47},
{17, 48},
{17, 49},
{17, 50},
{17, 51},
{17, 52},
{17, 53},
{17, 56},
{17, 59},
{17, 61},
{17, 64},
{17, 67},
{17, 68},
{17, 69},
{17, 71},
{17, 73},
{17, 74},
{17, 78},
{17, 79},
{17, 82},
{17, 83},
{17, 84},
{17, 85},
{17, 86},
{17, 87},
{17, 88},
{17, 89},
{17, 90},
{18, 21},
{18, 22},
{18, 23},
{18, 24},
{18, 25},
{18, 26},
{18, 27},
{18, 28},
{18, 29},
{18, 30},
{18, 34},
{18, 36},
{18, 37},
{18, 38},
{18, 39},
{18, 40},
{18, 41},
{18, 43},
{18, 45},
{18, 46},
{18, 47},
{18, 48},
{18, 49},
{18, 50},
{18, 51},
{18, 52},
{18, 54},
{18, 56},
{18, 58},
{18, 60},
{18, 62},
{18, 63},
{18, 64},
{18, 65},
{18, 68},
{18, 73},
{18, 76},
{18, 77},
{18, 82},
{18, 85},
{18, 86},
{18, 89},
{18, 90},
{19, 22},
{19, 28},
{19, 30},
{19, 34},
{19, 36},
{19, 37},
{19, 40},
{19, 43},
{19, 44},
{19, 45},
{19, 46},
{19, 47},
{19, 49},
{19, 55},
{19, 57},
{19, 58},
{19, 59},
{19, 60},
{19, 61},
{19, 64},
{19, 65},
{19, 67},
{19, 69},
{19, 70},
{19, 71},
{19, 72},
{19, 76},
{19, 78},
{19, 82},
{19, 85},
{19, 88},
{19, 89},
{19, 90},
{20, 21},
{20, 25},
{20, 26},
{20, 27},
{20, 29},
{20, 31},
{20, 32},
{20, 34},
{20, 35},
{20, 36},
{20, 37},
{20, 39},
{20, 41},
{20, 43},
{20, 45},
{20, 47},
{20, 48},
{20, 49},
{20, 50},
{20, 54},
{20, 55},
{20, 60},
{20, 62},
{20, 64},
{20, 69},
{20, 72},
{20, 73},
{20, 74},
{20, 76},
{20, 78},
{20, 81},
{20, 82},
{20, 83},
{20, 84},
{20, 85},
{20, 86},
{21, 22},
{21, 24},
{21, 25},
{21, 27},
{21, 28},
{21, 30},
{21, 31},
{21, 34},
{21, 35},
{21, 36},
{21, 38},
{21, 41},
{21, 42},
{21, 43},
{21, 44},
{21, 46},
{21, 47},
{21, 49},
{21, 50},
{21, 51},
{21, 53},
{21, 55},
{21, 57},
{21, 58},
{21, 68},
{21, 70},
{21, 72},
{21, 74},
{21, 78},
{21, 79},
{21, 80},
{21, 81},
{21, 84},
{21, 85},
{21, 89},
{22, 23},
{22, 24},
{22, 25},
{22, 27},
{22, 28},
{22, 31},
{22, 32},
{22, 35},
{22, 36},
{22, 37},
{22, 38},
{22, 39},
{22, 41},
{22, 45},
{22, 46},
{22, 48},
{22, 50},
{22, 51},
{22, 52},
{22, 62},
{22, 65},
{22, 66},
{22, 68},
{22, 69},
{22, 70},
{22, 72},
{22, 76},
{22, 78},
{22, 83},
{22, 85},
{22, 86},
{22, 87},
{22, 88},
{22, 90},
{23, 24},
{23, 26},
{23, 28},
{23, 29},
{23, 30},
{23, 31},
{23, 32},
{23, 33},
{23, 38},
{23, 39},
{23, 40},
{23, 42},
{23, 44},
{23, 46},
{23, 47},
{23, 48},
{23, 50},
{23, 52},
{23, 53},
{23, 54},
{23, 59},
{23, 60},
{23, 63},
{23, 64},
{23, 65},
{23, 68},
{23, 69},
{23, 70},
{23, 71},
{23, 72},
{23, 73},
{23, 74},
{23, 78},
{23, 79},
{23, 81},
{23, 83},
{23, 84},
{23, 87},
{23, 88},
{24, 25},
{24, 26},
{24, 27},
{24, 31},
{24, 32},
{24, 33},
{24, 35},
{24, 36},
{24, 37},
{24, 38},
{24, 39},
{24, 40},
{24, 41},
{24, 42},
{24, 44},
{24, 45},
{24, 50},
{24, 53},
{24, 54},
{24, 56},
{24, 57},
{24, 61},
{24, 64},
{24, 69},
{24, 70},
{24, 74},
{24, 75},
{24, 76},
{24, 77},
{24, 79},
{24, 80},
{24, 81},
{24, 82},
{24, 83},
{24, 85},
{24, 86},
{24, 87},
{24, 88},
{24, 89},
{25, 28},
{25, 30},
{25, 33},
{25, 38},
{25, 39},
{25, 40},
{25, 41},
{25, 42},
{25, 43},
{25, 47},
{25, 48},
{25, 49},
{25, 51},
{25, 52},
{25, 53},
{25, 55},
{25, 57},
{25, 58},
{25, 59},
{25, 61},
{25, 63},
{25, 65},
{25, 66},
{25, 68},
{25, 69},
{25, 72},
{25, 76},
{25, 77},
{25, 78},
{25, 80},
{25, 82},
{25, 84},
{25, 85},
{25, 88},
{25, 90},
{26, 30},
{26, 31},
{26, 32},
{26, 34},
{26, 35},
{26, 36},
{26, 39},
{26, 40},
{26, 45},
{26, 50},
{26, 51},
{26, 53},
{26, 56},
{26, 57},
{26, 59},
{26, 60},
{26, 61},
{26, 62},
{26, 64},
{26, 66},
{26, 69},
{26, 74},
{26, 76},
{26, 78},
{26, 79},
{26, 80},
{26, 84},
{26, 85},
{26, 88},
{26, 89},
{26, 90},
{27, 28},
{27, 29},
{27, 30},
{27, 31},
{27, 35},
{27, 36},
{27, 38},
{27, 41},
{27, 42},
{27, 43},
{27, 45},
{27, 46},
{27, 47},
{27, 48},
{27, 51},
{27, 53},
{27, 54},
{27, 57},
{27, 58},
{27, 59},
{27, 61},
{27, 63},
{27, 64},
{27, 67},
{27, 68},
{27, 69},
{27, 72},
{27, 75},
{27, 82},
{27, 83},
{27, 84},
{27, 85},
{27, 86},
{28, 29},
{28, 30},
{28, 32},
{28, 33},
{28, 38},
{28, 40},
{28, 43},
{28, 47},
{28, 53},
{28, 55},
{28, 57},
{28, 60},
{28, 61},
{28, 62},
{28, 64},
{28, 67},
{28, 68},
{28, 70},
{28, 71},
{28, 73},
{28, 76},
{28, 77},
{28, 79},
{28, 80},
{28, 81},
{28, 82},
{28, 83},
{28, 85},
{28, 86},
{28, 87},
{28, 88},
{28, 90},
{29, 30},
{29, 33},
{29, 34},
{29, 35},
{29, 40},
{29, 41},
{29, 44},
{29, 45},
{29, 46},
{29, 48},
{29, 49},
{29, 51},
{29, 55},
{29, 56},
{29, 57},
{29, 58},
{29, 59},
{29, 60},
{29, 61},
{29, 64},
{29, 65},
{29, 66},
{29, 72},
{29, 76},
{29, 83},
{29, 84},
{29, 88},
{29, 89},
{29, 90},
{30, 32},
{30, 33},
{30, 34},
{30, 35},
{30, 36},
{30, 37},
{30, 38},
{30, 39},
{30, 40},
{30, 41},
{30, 42},
{30, 44},
{30, 45},
{30, 46},
{30, 47},
{30, 48},
{30, 50},
{30, 53},
{30, 55},
{30, 56},
{30, 59},
{30, 60},
{30, 65},
{30, 66},
{30, 70},
{30, 71},
{30, 73},
{30, 75},
{30, 76},
{30, 82},
{30, 84},
{30, 85},
{30, 86},
{30, 89},
{30, 90},
{31, 32},
{31, 35},
{31, 36},
{31, 37},
{31, 38},
{31, 39},
{31, 40},
{31, 41},
{31, 42},
{31, 43},
{31, 44},
{31, 45},
{31, 48},
{31, 49},
{31, 50},
{31, 54},
{31, 55},
{31, 58},
{31, 60},
{31, 63},
{31, 65},
{31, 66},
{31, 70},
{31, 72},
{31, 76},
{31, 78},
{31, 79},
{31, 83},
{31, 84},
{31, 85},
{31, 88},
{32, 34},
{32, 38},
{32, 39},
{32, 45},
{32, 47},
{32, 48},
{32, 50},
{32, 52},
{32, 64},
{32, 65},
{32, 69},
{32, 71},
{32, 73},
{32, 77},
{32, 78},
{32, 80},
{32, 82},
{32, 83},
{32, 85},
{32, 87},
{32, 88},
{32, 90},
{33, 34},
{33, 35},
{33, 37},
{33, 39},
{33, 48},
{33, 50},
{33, 51},
{33, 53},
{33, 55},
{33, 59},
{33, 62},
{33, 68},
{33, 69},
{33, 71},
{33, 75},
{33, 76},
{33, 77},
{33, 79},
{33, 83},
{33, 84},
{33, 85},
{33, 87},
{33, 88},
{34, 38},
{34, 41},
{34, 42},
{34, 43},
{34, 44},
{34, 46},
{34, 48},
{34, 49},
{34, 51},
{34, 55},
{34, 56},
{34, 60},
{34, 62},
{34, 66},
{34, 69},
{34, 70},
{34, 72},
{34, 73},
{34, 74},
{34, 76},
{34, 78},
{34, 79},
{34, 84},
{34, 85},
{34, 86},
{34, 89},
{35, 36},
{35, 37},
{35, 38},
{35, 39},
{35, 44},
{35, 46},
{35, 47},
{35, 49},
{35, 53},
{35, 54},
{35, 56},
{35, 57},
{35, 63},
{35, 66},
{35, 69},
{35, 70},
{35, 71},
{35, 72},
{35, 73},
{35, 74},
{35, 75},
{35, 77},
{35, 79},
{35, 82},
{35, 83},
{35, 84},
{35, 85},
{35, 86},
{35, 87},
{35, 88},
{36, 38},
{36, 39},
{36, 40},
{36, 41},
{36, 42},
{36, 44},
{36, 49},
{36, 55},
{36, 56},
{36, 58},
{36, 60},
{36, 61},
{36, 62},
{36, 63},
{36, 66},
{36, 67},
{36, 71},
{36, 73},
{36, 75},
{36, 76},
{36, 77},
{36, 79},
{36, 82},
{36, 83},
{36, 84},
{36, 86},
{36, 88},
{36, 89},
{36, 90},
{37, 38},
{37, 39},
{37, 42},
{37, 46},
{37, 48},
{37, 49},
{37, 50},
{37, 51},
{37, 52},
{37, 53},
{37, 56},
{37, 57},
{37, 58},
{37, 64},
{37, 65},
{37, 66},
{37, 67},
{37, 69},
{37, 70},
{37, 72},
{37, 74},
{37, 77},
{37, 78},
{37, 81},
{37, 82},
{37, 84},
{37, 85},
{37, 86},
{37, 87},
{37, 88},
{37, 90},
{38, 39},
{38, 43},
{38, 44},
{38, 45},
{38, 50},
{38, 56},
{38, 58},
{38, 60},
{38, 63},
{38, 65},
{38, 66},
{38, 67},
{38, 68},
{38, 70},
{38, 72},
{38, 74},
{38, 76},
{38, 77},
{38, 78},
{38, 79},
{38, 80},
{38, 82},
{38, 84},
{38, 85},
{38, 86},
{38, 87},
{38, 88},
{38, 89},
{38, 90},
{39, 41},
{39, 44},
{39, 45},
{39, 46},
{39, 47},
{39, 49},
{39, 51},
{39, 52},
{39, 53},
{39, 56},
{39, 59},
{39, 60},
{39, 62},
{39, 63},
{39, 65},
{39, 66},
{39, 67},
{39, 69},
{39, 72},
{39, 81},
{39, 83},
{39, 84},
{39, 85},
{40, 41},
{40, 42},
{40, 46},
{40, 47},
{40, 53},
{40, 54},
{40, 55},
{40, 57},
{40, 60},
{40, 64},
{40, 65},
{40, 68},
{40, 69},
{40, 78},
{40, 79},
{40, 81},
{40, 82},
{40, 84},
{40, 86},
{40, 88},
{40, 90},
{41, 52},
{41, 53},
{41, 55},
{41, 57},
{41, 59},
{41, 61},
{41, 66},
{41, 67},
{41, 68},
{41, 69},
{41, 71},
{41, 73},
{41, 74},
{41, 75},
{41, 76},
{41, 78},
{41, 79},
{41, 81},
{41, 82},
{41, 84},
{42, 46},
{42, 50},
{42, 53},
{42, 60},
{42, 63},
{42, 65},
{42, 68},
{42, 69},
{42, 71},
{42, 72},
{42, 79},
{42, 83},
{42, 84},
{42, 85},
{42, 86},
{42, 88},
{43, 44},
{43, 45},
{43, 47},
{43, 48},
{43, 50},
{43, 53},
{43, 55},
{43, 56},
{43, 59},
{43, 60},
{43, 62},
{43, 63},
{43, 65},
{43, 66},
{43, 67},
{43, 70},
{43, 71},
{43, 74},
{43, 76},
{43, 77},
{43, 80},
{43, 81},
{43, 82},
{43, 83},
{43, 87},
{43, 88},
{43, 89},
{43, 90},
{44, 48},
{44, 50},
{44, 52},
{44, 53},
{44, 54},
{44, 56},
{44, 58},
{44, 59},
{44, 62},
{44, 63},
{44, 68},
{44, 70},
{44, 74},
{44, 76},
{44, 77},
{44, 81},
{44, 85},
{44, 86},
{44, 89},
{44, 90},
{45, 46},
{45, 49},
{45, 52},
{45, 53},
{45, 54},
{45, 55},
{45, 60},
{45, 61},
{45, 67},
{45, 68},
{45, 69},
{45, 70},
{45, 71},
{45, 72},
{45, 74},
{45, 75},
{45, 76},
{45, 77},
{45, 79},
{45, 83},
{45, 84},
{45, 85},
{45, 87},
{45, 88},
{45, 90},
{46, 47},
{46, 53},
{46, 55},
{46, 57},
{46, 59},
{46, 61},
{46, 64},
{46, 66},
{46, 67},
{46, 73},
{46, 75},
{46, 78},
{46, 79},
{46, 80},
{46, 83},
{46, 84},
{47, 48},
{47, 50},
{47, 57},
{47, 59},
{47, 60},
{47, 61},
{47, 64},
{47, 66},
{47, 68},
{47, 71},
{47, 72},
{47, 73},
{47, 76},
{47, 79},
{47, 81},
{47, 83},
{47, 84},
{47, 85},
{47, 89},
{47, 90},
{48, 51},
{48, 52},
{48, 55},
{48, 56},
{48, 58},
{48, 60},
{48, 61},
{48, 62},
{48, 63},
{48, 64},
{48, 65},
{48, 66},
{48, 67},
{48, 69},
{48, 70},
{48, 71},
{48, 72},
{48, 75},
{48, 77},
{48, 78},
{48, 79},
{48, 80},
{48, 84},
{48, 85},
{48, 86},
{48, 88},
{48, 89},
{49, 50},
{49, 51},
{49, 52},
{49, 55},
{49, 56},
{49, 58},
{49, 59},
{49, 63},
{49, 64},
{49, 66},
{49, 67},
{49, 69},
{49, 75},
{49, 78},
{49, 79},
{49, 80},
{49, 82},
{49, 85},
{49, 87},
{49, 89},
{49, 90},
{50, 51},
{50, 53},
{50, 54},
{50, 55},
{50, 56},
{50, 59},
{50, 61},
{50, 62},
{50, 63},
{50, 64},
{50, 75},
{50, 77},
{50, 78},
{50, 82},
{50, 85},
{50, 87},
{50, 89},
{50, 90},
{51, 52},
{51, 53},
{51, 54},
{51, 56},
{51, 58},
{51, 59},
{51, 60},
{51, 61},
{51, 66},
{51, 67},
{51, 70},
{51, 75},
{51, 81},
{51, 82},
{51, 84},
{51, 87},
{51, 88},
{52, 53},
{52, 54},
{52, 56},
{52, 57},
{52, 61},
{52, 64},
{52, 67},
{52, 68},
{52, 69},
{52, 70},
{52, 71},
{52, 72},
{52, 73},
{52, 76},
{52, 78},
{52, 79},
{52, 81},
{52, 83},
{52, 87},
{52, 89},
{53, 54},
{53, 56},
{53, 58},
{53, 60},
{53, 61},
{53, 65},
{53, 66},
{53, 69},
{53, 70},
{53, 71},
{53, 76},
{53, 77},
{53, 78},
{53, 80},
{53, 82},
{53, 83},
{53, 84},
{53, 85},
{53, 88},
{53, 89},
{54, 55},
{54, 56},
{54, 57},
{54, 61},
{54, 67},
{54, 68},
{54, 69},
{54, 70},
{54, 71},
{54, 72},
{54, 73},
{54, 74},
{54, 75},
{54, 78},
{54, 80},
{54, 82},
{54, 84},
{54, 85},
{54, 86},
{54, 87},
{54, 88},
{54, 90},
{55, 56},
{55, 59},
{55, 61},
{55, 63},
{55, 64},
{55, 66},
{55, 67},
{55, 70},
{55, 72},
{55, 75},
{55, 76},
{55, 78},
{55, 80},
{55, 81},
{55, 82},
{55, 83},
{55, 90},
{56, 57},
{56, 59},
{56, 60},
{56, 61},
{56, 63},
{56, 72},
{56, 74},
{56, 75},
{56, 77},
{56, 78},
{56, 79},
{56, 80},
{56, 81},
{56, 82},
{56, 83},
{56, 85},
{56, 88},
{56, 89},
{56, 90},
{57, 58},
{57, 60},
{57, 64},
{57, 66},
{57, 70},
{57, 71},
{57, 72},
{57, 73},
{57, 74},
{57, 76},
{57, 80},
{57, 81},
{57, 88},
{58, 59},
{58, 60},
{58, 61},
{58, 63},
{58, 64},
{58, 67},
{58, 68},
{58, 69},
{58, 70},
{58, 71},
{58, 76},
{58, 78},
{58, 79},
{58, 81},
{58, 82},
{58, 85},
{58, 88},
{59, 60},
{59, 63},
{59, 64},
{59, 66},
{59, 68},
{59, 72},
{59, 73},
{59, 75},
{59, 76},
{59, 77},
{59, 78},
{59, 80},
{59, 81},
{59, 82},
{59, 85},
{59, 87},
{60, 63},
{60, 64},
{60, 66},
{60, 67},
{60, 68},
{60, 74},
{60, 75},
{60, 76},
{60, 77},
{60, 82},
{60, 83},
{60, 87},
{60, 88},
{60, 90},
{61, 62},
{61, 63},
{61, 66},
{61, 67},
{61, 69},
{61, 72},
{61, 73},
{61, 74},
{61, 75},
{61, 77},
{61, 78},
{61, 79},
{61, 80},
{61, 81},
{61, 83},
{61, 84},
{61, 86},
{61, 87},
{62, 63},
{62, 66},
{62, 67},
{62, 68},
{62, 70},
{62, 73},
{62, 75},
{62, 78},
{62, 80},
{62, 81},
{62, 82},
{62, 84},
{62, 85},
{62, 86},
{62, 88},
{62, 89},
{62, 90},
{63, 66},
{63, 67},
{63, 74},
{63, 76},
{63, 77},
{63, 78},
{63, 81},
{63, 82},
{63, 83},
{63, 84},
{63, 85},
{63, 89},
{64, 65},
{64, 67},
{64, 68},
{64, 69},
{64, 70},
{64, 72},
{64, 73},
{64, 80},
{64, 82},
{64, 85},
{64, 89},
{64, 90},
{65, 66},
{65, 67},
{65, 68},
{65, 72},
{65, 75},
{65, 78},
{65, 79},
{65, 82},
{65, 83},
{65, 86},
{65, 87},
{65, 89},
{66, 69},
{66, 71},
{66, 72},
{66, 74},
{66, 75},
{66, 76},
{66, 78},
{66, 79},
{66, 80},
{66, 82},
{66, 83},
{66, 86},
{66, 88},
{66, 90},
{67, 70},
{67, 73},
{67, 74},
{67, 77},
{67, 78},
{67, 79},
{67, 83},
{67, 84},
{67, 85},
{67, 87},
{67, 89},
{68, 69},
{68, 71},
{68, 73},
{68, 75},
{68, 77},
{68, 81},
{68, 82},
{68, 83},
{68, 84},
{68, 87},
{68, 88},
{68, 90},
{69, 70},
{69, 73},
{69, 74},
{69, 75},
{69, 76},
{69, 77},
{69, 79},
{69, 82},
{69, 84},
{69, 85},
{69, 88},
{70, 73},
{70, 75},
{70, 76},
{70, 81},
{70, 82},
{70, 83},
{70, 84},
{70, 86},
{70, 87},
{70, 88},
{71, 73},
{71, 78},
{71, 79},
{71, 80},
{71, 81},
{71, 82},
{71, 84},
{71, 86},
{71, 89},
{72, 79},
{72, 82},
{72, 83},
{72, 84},
{72, 87},
{72, 89},
{72, 90},
{73, 79},
{73, 82},
{73, 83},
{73, 84},
{74, 77},
{74, 78},
{74, 81},
{74, 83},
{74, 87},
{74, 90},
{75, 76},
{75, 80},
{75, 82},
{75, 84},
{75, 87},
{75, 88},
{75, 90},
{76, 77},
{76, 78},
{76, 80},
{76, 83},
{76, 84},
{76, 85},
{76, 86},
{76, 87},
{76, 90},
{77, 80},
{77, 81},
{77, 84},
{77, 86},
{77, 90},
{78, 80},
{78, 81},
{78, 82},
{78, 86},
{79, 80},
{79, 82},
{79, 83},
{79, 85},
{79, 87},
{80, 81},
{80, 82},
{80, 84},
{80, 85},
{80, 86},
{80, 87},
{80, 88},
{80, 89},
{81, 83},
{81, 84},
{81, 85},
{81, 86},
{81, 87},
{81, 88},
{81, 89},
{82, 83},
{82, 84},
{82, 85},
{82, 86},
{82, 87},
{82, 89},
{83, 84},
{83, 86},
{83, 87},
{83, 89},
{84, 86},
{84, 90},
{85, 86},
{85, 89},
{85, 90},
{86, 88},
{86, 90},
{87, 89},
{87, 90}}
